<?xml version="1.0" encoding="UTF-8"?><osil xmlns="os.optimizationservices.org" xmlns:xsi="http://www.w3.org/2001/XMLSchema-instance" xsi:schemaLocation="os.optimizationservices.org http://www.optimizationservices.org/schemas/2.0/OSiL.xsd"><instanceHeader><name>stockcycle</name></instanceHeader><instanceData><variables numberOfVariables="480"><var name="x1" lb="3" ub="156"/><var name="x2" lb="3" ub="156"/><var name="x3" lb="3" ub="156"/><var name="x4" lb="3" ub="156"/><var name="x5" lb="3" ub="156"/><var name="x6" lb="3" ub="156"/><var name="x7" lb="3" ub="156"/><var name="x8" lb="3" ub="156"/><var name="x9" lb="3" ub="156"/><var name="x10" lb="3" ub="156"/><var name="x11" lb="3" ub="156"/><var name="x12" lb="3" ub="156"/><var name="x13" lb="3" ub="156"/><var name="x14" lb="3" ub="156"/><var name="x15" lb="3" ub="156"/><var name="x16" lb="3" ub="156"/><var name="x17" lb="3" ub="156"/><var name="x18" lb="3" ub="156"/><var name="x19" lb="3" ub="156"/><var name="x20" lb="3" ub="156"/><var name="x21" lb="3" ub="156"/><var name="x22" lb="3" ub="156"/><var name="x23" lb="3" ub="156"/><var name="x24" lb="3" ub="156"/><var name="x25" lb="3" ub="156"/><var name="x26" lb="3" ub="156"/><var name="x27" lb="3" ub="156"/><var name="x28" lb="3" ub="156"/><var name="x29" lb="3" ub="156"/><var name="x30" lb="3" ub="156"/><var name="x31" lb="3" ub="156"/><var name="x32" lb="3" ub="156"/><var name="x33" lb="3" ub="156"/><var name="x34" lb="3" ub="156"/><var name="x35" lb="3" ub="156"/><var name="x36" lb="3" ub="156"/><var name="x37" lb="3" ub="156"/><var name="x38" lb="3" ub="156"/><var name="x39" lb="3" ub="156"/><var name="x40" lb="3" ub="156"/><var name="x41" lb="3" ub="156"/><var name="x42" lb="3" ub="156"/><var name="x43" lb="3" ub="156"/><var name="x44" lb="3" ub="156"/><var name="x45" lb="3" ub="156"/><var name="x46" lb="3" ub="156"/><var name="x47" lb="3" ub="156"/><var name="x48" lb="3" ub="156"/><var name="b49" type="B" ub="1"/><var name="b50" type="B" ub="1"/><var name="b51" type="B" ub="1"/><var name="b52" type="B" ub="1"/><var name="b53" type="B" ub="1"/><var name="b54" type="B" ub="1"/><var name="b55" type="B" ub="1"/><var name="b56" type="B" ub="1"/><var name="b57" type="B" ub="1"/><var name="b58" type="B" ub="1"/><var name="b59" type="B" ub="1"/><var name="b60" type="B" ub="1"/><var name="b61" type="B" ub="1"/><var name="b62" type="B" ub="1"/><var name="b63" type="B" ub="1"/><var name="b64" type="B" ub="1"/><var name="b65" type="B" ub="1"/><var name="b66" type="B" ub="1"/><var name="b67" type="B" ub="1"/><var name="b68" type="B" ub="1"/><var name="b69" type="B" ub="1"/><var name="b70" type="B" ub="1"/><var name="b71" type="B" ub="1"/><var name="b72" type="B" ub="1"/><var name="b73" type="B" ub="1"/><var name="b74" type="B" ub="1"/><var name="b75" type="B" ub="1"/><var name="b76" type="B" ub="1"/><var name="b77" type="B" ub="1"/><var name="b78" type="B" ub="1"/><var name="b79" type="B" ub="1"/><var name="b80" type="B" ub="1"/><var name="b81" type="B" ub="1"/><var name="b82" type="B" ub="1"/><var name="b83" type="B" ub="1"/><var name="b84" type="B" ub="1"/><var name="b85" type="B" ub="1"/><var name="b86" type="B" ub="1"/><var name="b87" type="B" ub="1"/><var name="b88" type="B" ub="1"/><var name="b89" type="B" ub="1"/><var name="b90" type="B" ub="1"/><var name="b91" type="B" ub="1"/><var name="b92" type="B" ub="1"/><var name="b93" type="B" ub="1"/><var name="b94" type="B" ub="1"/><var name="b95" type="B" ub="1"/><var name="b96" type="B" ub="1"/><var name="b97" type="B" ub="1"/><var name="b98" type="B" ub="1"/><var name="b99" type="B" ub="1"/><var name="b100" type="B" ub="1"/><var name="b101" type="B" ub="1"/><var name="b102" type="B" ub="1"/><var name="b103" type="B" ub="1"/><var name="b104" type="B" ub="1"/><var name="b105" type="B" ub="1"/><var name="b106" type="B" ub="1"/><var name="b107" type="B" ub="1"/><var name="b108" type="B" ub="1"/><var name="b109" type="B" ub="1"/><var name="b110" type="B" ub="1"/><var name="b111" type="B" ub="1"/><var name="b112" type="B" ub="1"/><var name="b113" type="B" ub="1"/><var name="b114" type="B" ub="1"/><var name="b115" type="B" ub="1"/><var name="b116" type="B" ub="1"/><var name="b117" type="B" ub="1"/><var name="b118" type="B" ub="1"/><var name="b119" type="B" ub="1"/><var name="b120" type="B" ub="1"/><var name="b121" type="B" ub="1"/><var name="b122" type="B" ub="1"/><var name="b123" type="B" ub="1"/><var name="b124" type="B" ub="1"/><var name="b125" type="B" ub="1"/><var name="b126" type="B" ub="1"/><var name="b127" type="B" ub="1"/><var name="b128" type="B" ub="1"/><var name="b129" type="B" ub="1"/><var name="b130" type="B" ub="1"/><var name="b131" type="B" ub="1"/><var name="b132" type="B" ub="1"/><var name="b133" type="B" ub="1"/><var name="b134" type="B" ub="1"/><var name="b135" type="B" ub="1"/><var name="b136" type="B" ub="1"/><var name="b137" type="B" ub="1"/><var name="b138" type="B" ub="1"/><var name="b139" type="B" ub="1"/><var name="b140" type="B" ub="1"/><var name="b141" type="B" ub="1"/><var name="b142" type="B" ub="1"/><var name="b143" type="B" ub="1"/><var name="b144" type="B" ub="1"/><var name="b145" type="B" ub="1"/><var name="b146" type="B" ub="1"/><var name="b147" type="B" ub="1"/><var name="b148" type="B" ub="1"/><var name="b149" type="B" ub="1"/><var name="b150" type="B" ub="1"/><var name="b151" type="B" ub="1"/><var name="b152" type="B" ub="1"/><var name="b153" type="B" ub="1"/><var name="b154" type="B" ub="1"/><var name="b155" type="B" ub="1"/><var name="b156" type="B" ub="1"/><var name="b157" type="B" ub="1"/><var name="b158" type="B" ub="1"/><var name="b159" type="B" ub="1"/><var name="b160" type="B" ub="1"/><var name="b161" type="B" ub="1"/><var name="b162" type="B" ub="1"/><var name="b163" type="B" ub="1"/><var name="b164" type="B" ub="1"/><var name="b165" type="B" ub="1"/><var name="b166" type="B" ub="1"/><var name="b167" type="B" ub="1"/><var name="b168" type="B" ub="1"/><var name="b169" type="B" ub="1"/><var name="b170" type="B" ub="1"/><var name="b171" type="B" ub="1"/><var name="b172" type="B" ub="1"/><var name="b173" type="B" ub="1"/><var name="b174" type="B" ub="1"/><var name="b175" type="B" ub="1"/><var name="b176" type="B" ub="1"/><var name="b177" type="B" ub="1"/><var name="b178" type="B" ub="1"/><var name="b179" type="B" ub="1"/><var name="b180" type="B" ub="1"/><var name="b181" type="B" ub="1"/><var name="b182" type="B" ub="1"/><var name="b183" type="B" ub="1"/><var name="b184" type="B" ub="1"/><var name="b185" type="B" ub="1"/><var name="b186" type="B" ub="1"/><var name="b187" type="B" ub="1"/><var name="b188" type="B" ub="1"/><var name="b189" type="B" ub="1"/><var name="b190" type="B" ub="1"/><var name="b191" type="B" ub="1"/><var name="b192" type="B" ub="1"/><var name="b193" type="B" ub="1"/><var name="b194" type="B" ub="1"/><var name="b195" type="B" ub="1"/><var name="b196" type="B" ub="1"/><var name="b197" type="B" ub="1"/><var name="b198" type="B" ub="1"/><var name="b199" type="B" ub="1"/><var name="b200" type="B" ub="1"/><var name="b201" type="B" ub="1"/><var name="b202" type="B" ub="1"/><var name="b203" type="B" ub="1"/><var name="b204" type="B" ub="1"/><var name="b205" type="B" ub="1"/><var name="b206" type="B" ub="1"/><var name="b207" type="B" ub="1"/><var name="b208" type="B" ub="1"/><var name="b209" type="B" ub="1"/><var name="b210" type="B" ub="1"/><var name="b211" type="B" ub="1"/><var name="b212" type="B" ub="1"/><var name="b213" type="B" ub="1"/><var name="b214" type="B" ub="1"/><var name="b215" type="B" ub="1"/><var name="b216" type="B" ub="1"/><var name="b217" type="B" ub="1"/><var name="b218" type="B" ub="1"/><var name="b219" type="B" ub="1"/><var name="b220" type="B" ub="1"/><var name="b221" type="B" ub="1"/><var name="b222" type="B" ub="1"/><var name="b223" type="B" ub="1"/><var name="b224" type="B" ub="1"/><var name="b225" type="B" ub="1"/><var name="b226" type="B" ub="1"/><var name="b227" type="B" ub="1"/><var name="b228" type="B" ub="1"/><var name="b229" type="B" ub="1"/><var name="b230" type="B" ub="1"/><var name="b231" type="B" ub="1"/><var name="b232" type="B" ub="1"/><var name="b233" type="B" ub="1"/><var name="b234" type="B" ub="1"/><var name="b235" type="B" ub="1"/><var name="b236" type="B" ub="1"/><var name="b237" type="B" ub="1"/><var name="b238" type="B" ub="1"/><var name="b239" type="B" ub="1"/><var name="b240" type="B" ub="1"/><var name="b241" type="B" ub="1"/><var name="b242" type="B" ub="1"/><var name="b243" type="B" ub="1"/><var name="b244" type="B" ub="1"/><var name="b245" type="B" ub="1"/><var name="b246" type="B" ub="1"/><var name="b247" type="B" ub="1"/><var name="b248" type="B" ub="1"/><var name="b249" type="B" ub="1"/><var name="b250" type="B" ub="1"/><var name="b251" type="B" ub="1"/><var name="b252" type="B" ub="1"/><var name="b253" type="B" ub="1"/><var name="b254" type="B" ub="1"/><var name="b255" type="B" ub="1"/><var name="b256" type="B" ub="1"/><var name="b257" type="B" ub="1"/><var name="b258" type="B" ub="1"/><var name="b259" type="B" ub="1"/><var name="b260" type="B" ub="1"/><var name="b261" type="B" ub="1"/><var name="b262" type="B" ub="1"/><var name="b263" type="B" ub="1"/><var name="b264" type="B" ub="1"/><var name="b265" type="B" ub="1"/><var name="b266" type="B" ub="1"/><var name="b267" type="B" ub="1"/><var name="b268" type="B" ub="1"/><var name="b269" type="B" ub="1"/><var name="b270" type="B" ub="1"/><var name="b271" type="B" ub="1"/><var name="b272" type="B" ub="1"/><var name="b273" type="B" ub="1"/><var name="b274" type="B" ub="1"/><var name="b275" type="B" ub="1"/><var name="b276" type="B" ub="1"/><var name="b277" type="B" ub="1"/><var name="b278" type="B" ub="1"/><var name="b279" type="B" ub="1"/><var name="b280" type="B" ub="1"/><var name="b281" type="B" ub="1"/><var name="b282" type="B" ub="1"/><var name="b283" type="B" ub="1"/><var name="b284" type="B" ub="1"/><var name="b285" type="B" ub="1"/><var name="b286" type="B" ub="1"/><var name="b287" type="B" ub="1"/><var name="b288" type="B" ub="1"/><var name="b289" type="B" ub="1"/><var name="b290" type="B" ub="1"/><var name="b291" type="B" ub="1"/><var name="b292" type="B" ub="1"/><var name="b293" type="B" ub="1"/><var name="b294" type="B" ub="1"/><var name="b295" type="B" ub="1"/><var name="b296" type="B" ub="1"/><var name="b297" type="B" ub="1"/><var name="b298" type="B" ub="1"/><var name="b299" type="B" ub="1"/><var name="b300" type="B" ub="1"/><var name="b301" type="B" ub="1"/><var name="b302" type="B" ub="1"/><var name="b303" type="B" ub="1"/><var name="b304" type="B" ub="1"/><var name="b305" type="B" ub="1"/><var name="b306" type="B" ub="1"/><var name="b307" type="B" ub="1"/><var name="b308" type="B" ub="1"/><var name="b309" type="B" ub="1"/><var name="b310" type="B" ub="1"/><var name="b311" type="B" ub="1"/><var name="b312" type="B" ub="1"/><var name="b313" type="B" ub="1"/><var name="b314" type="B" ub="1"/><var name="b315" type="B" ub="1"/><var name="b316" type="B" ub="1"/><var name="b317" type="B" ub="1"/><var name="b318" type="B" ub="1"/><var name="b319" type="B" ub="1"/><var name="b320" type="B" ub="1"/><var name="b321" type="B" ub="1"/><var name="b322" type="B" ub="1"/><var name="b323" type="B" ub="1"/><var name="b324" type="B" ub="1"/><var name="b325" type="B" ub="1"/><var name="b326" type="B" ub="1"/><var name="b327" type="B" ub="1"/><var name="b328" type="B" ub="1"/><var name="b329" type="B" ub="1"/><var name="b330" type="B" ub="1"/><var name="b331" type="B" ub="1"/><var name="b332" type="B" ub="1"/><var name="b333" type="B" ub="1"/><var name="b334" type="B" ub="1"/><var name="b335" type="B" ub="1"/><var name="b336" type="B" ub="1"/><var name="b337" type="B" ub="1"/><var name="b338" type="B" ub="1"/><var name="b339" type="B" ub="1"/><var name="b340" type="B" ub="1"/><var name="b341" type="B" ub="1"/><var name="b342" type="B" ub="1"/><var name="b343" type="B" ub="1"/><var name="b344" type="B" ub="1"/><var name="b345" type="B" ub="1"/><var name="b346" type="B" ub="1"/><var name="b347" type="B" ub="1"/><var name="b348" type="B" ub="1"/><var name="b349" type="B" ub="1"/><var name="b350" type="B" ub="1"/><var name="b351" type="B" ub="1"/><var name="b352" type="B" ub="1"/><var name="b353" type="B" ub="1"/><var name="b354" type="B" ub="1"/><var name="b355" type="B" ub="1"/><var name="b356" type="B" ub="1"/><var name="b357" type="B" ub="1"/><var name="b358" type="B" ub="1"/><var name="b359" type="B" ub="1"/><var name="b360" type="B" ub="1"/><var name="b361" type="B" ub="1"/><var name="b362" type="B" ub="1"/><var name="b363" type="B" ub="1"/><var name="b364" type="B" ub="1"/><var name="b365" type="B" ub="1"/><var name="b366" type="B" ub="1"/><var name="b367" type="B" ub="1"/><var name="b368" type="B" ub="1"/><var name="b369" type="B" ub="1"/><var name="b370" type="B" ub="1"/><var name="b371" type="B" ub="1"/><var name="b372" type="B" ub="1"/><var name="b373" type="B" ub="1"/><var name="b374" type="B" ub="1"/><var name="b375" type="B" ub="1"/><var name="b376" type="B" ub="1"/><var name="b377" type="B" ub="1"/><var name="b378" type="B" ub="1"/><var name="b379" type="B" ub="1"/><var name="b380" type="B" ub="1"/><var name="b381" type="B" ub="1"/><var name="b382" type="B" ub="1"/><var name="b383" type="B" ub="1"/><var name="b384" type="B" ub="1"/><var name="b385" type="B" ub="1"/><var name="b386" type="B" ub="1"/><var name="b387" type="B" ub="1"/><var name="b388" type="B" ub="1"/><var name="b389" type="B" ub="1"/><var name="b390" type="B" ub="1"/><var name="b391" type="B" ub="1"/><var name="b392" type="B" ub="1"/><var name="b393" type="B" ub="1"/><var name="b394" type="B" ub="1"/><var name="b395" type="B" ub="1"/><var name="b396" type="B" ub="1"/><var name="b397" type="B" ub="1"/><var name="b398" type="B" ub="1"/><var name="b399" type="B" ub="1"/><var name="b400" type="B" ub="1"/><var name="b401" type="B" ub="1"/><var name="b402" type="B" ub="1"/><var name="b403" type="B" ub="1"/><var name="b404" type="B" ub="1"/><var name="b405" type="B" ub="1"/><var name="b406" type="B" ub="1"/><var name="b407" type="B" ub="1"/><var name="b408" type="B" ub="1"/><var name="b409" type="B" ub="1"/><var name="b410" type="B" ub="1"/><var name="b411" type="B" ub="1"/><var name="b412" type="B" ub="1"/><var name="b413" type="B" ub="1"/><var name="b414" type="B" ub="1"/><var name="b415" type="B" ub="1"/><var name="b416" type="B" ub="1"/><var name="b417" type="B" ub="1"/><var name="b418" type="B" ub="1"/><var name="b419" type="B" ub="1"/><var name="b420" type="B" ub="1"/><var name="b421" type="B" ub="1"/><var name="b422" type="B" ub="1"/><var name="b423" type="B" ub="1"/><var name="b424" type="B" ub="1"/><var name="b425" type="B" ub="1"/><var name="b426" type="B" ub="1"/><var name="b427" type="B" ub="1"/><var name="b428" type="B" ub="1"/><var name="b429" type="B" ub="1"/><var name="b430" type="B" ub="1"/><var name="b431" type="B" ub="1"/><var name="b432" type="B" ub="1"/><var name="b433" type="B" ub="1"/><var name="b434" type="B" ub="1"/><var name="b435" type="B" ub="1"/><var name="b436" type="B" ub="1"/><var name="b437" type="B" ub="1"/><var name="b438" type="B" ub="1"/><var name="b439" type="B" ub="1"/><var name="b440" type="B" ub="1"/><var name="b441" type="B" ub="1"/><var name="b442" type="B" ub="1"/><var name="b443" type="B" ub="1"/><var name="b444" type="B" ub="1"/><var name="b445" type="B" ub="1"/><var name="b446" type="B" ub="1"/><var name="b447" type="B" ub="1"/><var name="b448" type="B" ub="1"/><var name="b449" type="B" ub="1"/><var name="b450" type="B" ub="1"/><var name="b451" type="B" ub="1"/><var name="b452" type="B" ub="1"/><var name="b453" type="B" ub="1"/><var name="b454" type="B" ub="1"/><var name="b455" type="B" ub="1"/><var name="b456" type="B" ub="1"/><var name="b457" type="B" ub="1"/><var name="b458" type="B" ub="1"/><var name="b459" type="B" ub="1"/><var name="b460" type="B" ub="1"/><var name="b461" type="B" ub="1"/><var name="b462" type="B" ub="1"/><var name="b463" type="B" ub="1"/><var name="b464" type="B" ub="1"/><var name="b465" type="B" ub="1"/><var name="b466" type="B" ub="1"/><var name="b467" type="B" ub="1"/><var name="b468" type="B" ub="1"/><var name="b469" type="B" ub="1"/><var name="b470" type="B" ub="1"/><var name="b471" type="B" ub="1"/><var name="b472" type="B" ub="1"/><var name="b473" type="B" ub="1"/><var name="b474" type="B" ub="1"/><var name="b475" type="B" ub="1"/><var name="b476" type="B" ub="1"/><var name="b477" type="B" ub="1"/><var name="b478" type="B" ub="1"/><var name="b479" type="B" ub="1"/><var name="b480" type="B" ub="1"/></variables><objectives><obj maxOrMin="min" name="defObj_objvar" numberOfObjCoef="0"/></objectives><constraints numberOfConstraints="97"><con name="e2" ub="300"/><con name="e3" lb="0" ub="0"/><con name="e4" lb="0" ub="0"/><con name="e5" lb="0" ub="0"/><con name="e6" lb="0" ub="0"/><con name="e7" lb="0" ub="0"/><con name="e8" lb="0" ub="0"/><con name="e9" lb="0" ub="0"/><con name="e10" lb="0" ub="0"/><con name="e11" lb="0" ub="0"/><con name="e12" lb="0" ub="0"/><con name="e13" lb="0" ub="0"/><con name="e14" lb="0" ub="0"/><con name="e15" lb="0" ub="0"/><con name="e16" lb="0" ub="0"/><con name="e17" lb="0" ub="0"/><con name="e18" lb="0" ub="0"/><con name="e19" lb="0" ub="0"/><con name="e20" lb="0" ub="0"/><con name="e21" lb="0" ub="0"/><con name="e22" lb="0" ub="0"/><con name="e23" lb="0" ub="0"/><con name="e24" lb="0" ub="0"/><con name="e25" lb="0" ub="0"/><con name="e26" lb="0" ub="0"/><con name="e27" lb="0" ub="0"/><con name="e28" lb="0" ub="0"/><con name="e29" lb="0" ub="0"/><con name="e30" lb="0" ub="0"/><con name="e31" lb="0" ub="0"/><con name="e32" lb="0" ub="0"/><con name="e33" lb="0" ub="0"/><con name="e34" lb="0" ub="0"/><con name="e35" lb="0" ub="0"/><con name="e36" lb="0" ub="0"/><con name="e37" lb="0" ub="0"/><con name="e38" lb="0" ub="0"/><con name="e39" lb="0" ub="0"/><con name="e40" lb="0" ub="0"/><con name="e41" lb="0" ub="0"/><con name="e42" lb="0" ub="0"/><con name="e43" lb="0" ub="0"/><con name="e44" lb="0" ub="0"/><con name="e45" lb="0" ub="0"/><con name="e46" lb="0" ub="0"/><con name="e47" lb="0" ub="0"/><con name="e48" lb="0" ub="0"/><con name="e49" lb="0" ub="0"/><con name="e50" lb="0" ub="0"/><con name="e51" lb="1" ub="1"/><con name="e52" lb="1" ub="1"/><con name="e53" lb="1" ub="1"/><con name="e54" lb="1" ub="1"/><con name="e55" lb="1" ub="1"/><con name="e56" lb="1" ub="1"/><con name="e57" lb="1" ub="1"/><con name="e58" lb="1" ub="1"/><con name="e59" lb="1" ub="1"/><con name="e60" lb="1" ub="1"/><con name="e61" lb="1" ub="1"/><con name="e62" lb="1" ub="1"/><con name="e63" lb="1" ub="1"/><con name="e64" lb="1" ub="1"/><con name="e65" lb="1" ub="1"/><con name="e66" lb="1" ub="1"/><con name="e67" lb="1" ub="1"/><con name="e68" lb="1" ub="1"/><con name="e69" lb="1" ub="1"/><con name="e70" lb="1" ub="1"/><con name="e71" lb="1" ub="1"/><con name="e72" lb="1" ub="1"/><con name="e73" lb="1" ub="1"/><con name="e74" lb="1" ub="1"/><con name="e75" lb="1" ub="1"/><con name="e76" lb="1" ub="1"/><con name="e77" lb="1" ub="1"/><con name="e78" lb="1" ub="1"/><con name="e79" lb="1" ub="1"/><con name="e80" lb="1" ub="1"/><con name="e81" lb="1" ub="1"/><con name="e82" lb="1" ub="1"/><con name="e83" lb="1" ub="1"/><con name="e84" lb="1" ub="1"/><con name="e85" lb="1" ub="1"/><con name="e86" lb="1" ub="1"/><con name="e87" lb="1" ub="1"/><con name="e88" lb="1" ub="1"/><con name="e89" lb="1" ub="1"/><con name="e90" lb="1" ub="1"/><con name="e91" lb="1" ub="1"/><con name="e92" lb="1" ub="1"/><con name="e93" lb="1" ub="1"/><con name="e94" lb="1" ub="1"/><con name="e95" lb="1" ub="1"/><con name="e96" lb="1" ub="1"/><con name="e97" lb="1" ub="1"/><con name="e98" lb="1" ub="1"/></constraints><linearConstraintCoefficients numberOfValues="960"><start><el>0</el><el mult="49" incr="10">48</el><el mult="48" incr="9">537</el></start><colIdx><el mult="48" incr="1">0</el><el>0</el><el mult="9" incr="1">48</el><el>1</el><el mult="9" incr="1">57</el><el>2</el><el mult="9" incr="1">66</el><el>3</el><el mult="9" incr="1">75</el><el>4</el><el mult="9" incr="1">84</el><el>5</el><el mult="9" incr="1">93</el><el>6</el><el mult="9" incr="1">102</el><el>7</el><el mult="9" incr="1">111</el><el>8</el><el mult="9" incr="1">120</el><el>9</el><el mult="9" incr="1">129</el><el>10</el><el mult="9" incr="1">138</el><el>11</el><el mult="9" incr="1">147</el><el>12</el><el mult="9" incr="1">156</el><el>13</el><el mult="9" incr="1">165</el><el>14</el><el mult="9" incr="1">174</el><el>15</el><el mult="9" incr="1">183</el><el>16</el><el mult="9" incr="1">192</el><el>17</el><el mult="9" incr="1">201</el><el>18</el><el mult="9" incr="1">210</el><el>19</el><el mult="9" incr="1">219</el><el>20</el><el mult="9" incr="1">228</el><el>21</el><el mult="9" incr="1">237</el><el>22</el><el mult="9" incr="1">246</el><el>23</el><el mult="9" incr="1">255</el><el>24</el><el mult="9" incr="1">264</el><el>25</el><el mult="9" incr="1">273</el><el>26</el><el mult="9" incr="1">282</el><el>27</el><el mult="9" incr="1">291</el><el>28</el><el mult="9" incr="1">300</el><el>29</el><el mult="9" incr="1">309</el><el>30</el><el mult="9" incr="1">318</el><el>31</el><el mult="9" incr="1">327</el><el>32</el><el mult="9" incr="1">336</el><el>33</el><el mult="9" incr="1">345</el><el>34</el><el mult="9" incr="1">354</el><el>35</el><el mult="9" incr="1">363</el><el>36</el><el mult="9" incr="1">372</el><el>37</el><el mult="9" incr="1">381</el><el>38</el><el mult="9" incr="1">390</el><el>39</el><el mult="9" incr="1">399</el><el>40</el><el mult="9" incr="1">408</el><el>41</el><el mult="9" incr="1">417</el><el>42</el><el mult="9" incr="1">426</el><el>43</el><el mult="9" incr="1">435</el><el>44</el><el mult="9" incr="1">444</el><el>45</el><el mult="9" incr="1">453</el><el>46</el><el mult="9" incr="1">462</el><el>47</el><el mult="9" incr="1">471</el><el mult="432" incr="1">48</el></colIdx><value><el mult="48">1</el><el>-1</el><el>3</el><el>6</el><el>9</el><el>12</el><el>18</el><el>36</el><el>52</el><el>78</el><el>156</el><el>-1</el><el>3</el><el>6</el><el>9</el><el>12</el><el>18</el><el>36</el><el>52</el><el>78</el><el>156</el><el>-1</el><el>3</el><el>6</el><el>9</el><el>12</el><el>18</el><el>36</el><el>52</el><el>78</el><el>156</el><el>-1</el><el>3</el><el>6</el><el>9</el><el>12</el><el>18</el><el>36</el><el>52</el><el>78</el><el>156</el><el>-1</el><el>3</el><el>6</el><el>9</el><el>12</el><el>18</el><el>36</el><el>52</el><el>78</el><el>156</el><el>-1</el><el>3</el><el>6</el><el>9</el><el>12</el><el>18</el><el>36</el><el>52</el><el>78</el><el>156</el><el>-1</el><el>3</el><el>6</el><el>9</el><el>12</el><el>18</el><el>36</el><el>52</el><el>78</el><el>156</el><el>-1</el><el>3</el><el>6</el><el>9</el><el>12</el><el>18</el><el>36</el><el>52</el><el>78</el><el>156</el><el>-1</el><el>3</el><el>6</el><el>9</el><el>12</el><el>18</el><el>36</el><el>52</el><el>78</el><el>156</el><el>-1</el><el>3</el><el>6</el><el>9</el><el>12</el><el>18</el><el>36</el><el>52</el><el>78</el><el>156</el><el>-1</el><el>3</el><el>6</el><el>9</el><el>12</el><el>18</el><el>36</el><el>52</el><el>78</el><el>156</el><el>-1</el><el>3</el><el>6</el><el>9</el><el>12</el><el>18</el><el>36</el><el>52</el><el>78</el><el>156</el><el>-1</el><el>3</el><el>6</el><el>9</el><el>12</el><el>18</el><el>36</el><el>52</el><el>78</el><el>156</el><el>-1</el><el>3</el><el>6</el><el>9</el><el>12</el><el>18</el><el>36</el><el>52</el><el>78</el><el>156</el><el>-1</el><el>3</el><el>6</el><el>9</el><el>12</el><el>18</el><el>36</el><el>52</el><el>78</el><el>156</el><el>-1</el><el>3</el><el>6</el><el>9</el><el>12</el><el>18</el><el>36</el><el>52</el><el>78</el><el>156</el><el>-1</el><el>3</el><el>6</el><el>9</el><el>12</el><el>18</el><el>36</el><el>52</el><el>78</el><el>156</el><el>-1</el><el>3</el><el>6</el><el>9</el><el>12</el><el>18</el><el>36</el><el>52</el><el>78</el><el>156</el><el>-1</el><el>3</el><el>6</el><el>9</el><el>12</el><el>18</el><el>36</el><el>52</el><el>78</el><el>156</el><el>-1</el><el>3</el><el>6</el><el>9</el><el>12</el><el>18</el><el>36</el><el>52</el><el>78</el><el>156</el><el>-1</el><el>3</el><el>6</el><el>9</el><el>12</el><el>18</el><el>36</el><el>52</el><el>78</el><el>156</el><el>-1</el><el>3</el><el>6</el><el>9</el><el>12</el><el>18</el><el>36</el><el>52</el><el>78</el><el>156</el><el>-1</el><el>3</el><el>6</el><el>9</el><el>12</el><el>18</el><el>36</el><el>52</el><el>78</el><el>156</el><el>-1</el><el>3</el><el>6</el><el>9</el><el>12</el><el>18</el><el>36</el><el>52</el><el>78</el><el>156</el><el>-1</el><el>3</el><el>6</el><el>9</el><el>12</el><el>18</el><el>36</el><el>52</el><el>78</el><el>156</el><el>-1</el><el>3</el><el>6</el><el>9</el><el>12</el><el>18</el><el>36</el><el>52</el><el>78</el><el>156</el><el>-1</el><el>3</el><el>6</el><el>9</el><el>12</el><el>18</el><el>36</el><el>52</el><el>78</el><el>156</el><el>-1</el><el>3</el><el>6</el><el>9</el><el>12</el><el>18</el><el>36</el><el>52</el><el>78</el><el>156</el><el>-1</el><el>3</el><el>6</el><el>9</el><el>12</el><el>18</el><el>36</el><el>52</el><el>78</el><el>156</el><el>-1</el><el>3</el><el>6</el><el>9</el><el>12</el><el>18</el><el>36</el><el>52</el><el>78</el><el>156</el><el>-1</el><el>3</el><el>6</el><el>9</el><el>12</el><el>18</el><el>36</el><el>52</el><el>78</el><el>156</el><el>-1</el><el>3</el><el>6</el><el>9</el><el>12</el><el>18</el><el>36</el><el>52</el><el>78</el><el>156</el><el>-1</el><el>3</el><el>6</el><el>9</el><el>12</el><el>18</el><el>36</el><el>52</el><el>78</el><el>156</el><el>-1</el><el>3</el><el>6</el><el>9</el><el>12</el><el>18</el><el>36</el><el>52</el><el>78</el><el>156</el><el>-1</el><el>3</el><el>6</el><el>9</el><el>12</el><el>18</el><el>36</el><el>52</el><el>78</el><el>156</el><el>-1</el><el>3</el><el>6</el><el>9</el><el>12</el><el>18</el><el>36</el><el>52</el><el>78</el><el>156</el><el>-1</el><el>3</el><el>6</el><el>9</el><el>12</el><el>18</el><el>36</el><el>52</el><el>78</el><el>156</el><el>-1</el><el>3</el><el>6</el><el>9</el><el>12</el><el>18</el><el>36</el><el>52</el><el>78</el><el>156</el><el>-1</el><el>3</el><el>6</el><el>9</el><el>12</el><el>18</el><el>36</el><el>52</el><el>78</el><el>156</el><el>-1</el><el>3</el><el>6</el><el>9</el><el>12</el><el>18</el><el>36</el><el>52</el><el>78</el><el>156</el><el>-1</el><el>3</el><el>6</el><el>9</el><el>12</el><el>18</el><el>36</el><el>52</el><el>78</el><el>156</el><el>-1</el><el>3</el><el>6</el><el>9</el><el>12</el><el>18</el><el>36</el><el>52</el><el>78</el><el>156</el><el>-1</el><el>3</el><el>6</el><el>9</el><el>12</el><el>18</el><el>36</el><el>52</el><el>78</el><el>156</el><el>-1</el><el>3</el><el>6</el><el>9</el><el>12</el><el>18</el><el>36</el><el>52</el><el>78</el><el>156</el><el>-1</el><el>3</el><el>6</el><el>9</el><el>12</el><el>18</el><el>36</el><el>52</el><el>78</el><el>156</el><el>-1</el><el>3</el><el>6</el><el>9</el><el>12</el><el>18</el><el>36</el><el>52</el><el>78</el><el>156</el><el>-1</el><el>3</el><el>6</el><el>9</el><el>12</el><el>18</el><el>36</el><el>52</el><el>78</el><el>156</el><el>-1</el><el>3</el><el>6</el><el>9</el><el>12</el><el>18</el><el>36</el><el>52</el><el>78</el><el>156</el><el mult="432">1</el></value></linearConstraintCoefficients><nonlinearExpressions numberOfNonlinearExpressions="1"><nl idx="-1"><sum><divide><number value="30.06"/><variable idx="0"/></divide><divide><number value="32.58"/><variable idx="1"/></divide><divide><number value="56.88"/><variable idx="2"/></divide><divide><number value="81.18"/><variable idx="3"/></divide><divide><number value="92.7"/><variable idx="4"/></divide><divide><number value="121.86"/><variable idx="5"/></divide><divide><number value="141.3"/><variable idx="6"/></divide><divide><number value="179.1"/><variable idx="7"/></divide><divide><number value="257.4"/><variable idx="8"/></divide><divide><number value="313.2"/><variable idx="9"/></divide><divide><number value="622.905"/><variable idx="10"/></divide><divide><number value="705.345"/><variable idx="11"/></divide><divide><number value="1818"/><variable idx="12"/></divide><divide><number value="2089.8"/><variable idx="13"/></divide><divide><number value="2244.6"/><variable idx="14"/></divide><divide><number value="2.4e3"/><variable idx="15"/></divide><divide><number value="2553.6"/><variable idx="16"/></divide><divide><number value="2571.75"/><variable idx="17"/></divide><divide><number value="2805.75"/><variable idx="18"/></divide><divide><number value="2966.7"/><variable idx="19"/></divide><divide><number value="3970.68"/><variable idx="20"/></divide><divide><number value="4715.73"/><variable idx="21"/></divide><divide><number value="6259.5"/><variable idx="22"/></divide><divide><number value="6521.67"/><variable idx="23"/></divide><divide><number value="7375.5"/><variable idx="24"/></divide><divide><number value="7572.45"/><variable idx="25"/></divide><divide><number value="8095.8"/><variable idx="26"/></divide><divide><number value="10038.6"/><variable idx="27"/></divide><divide><number value="10256.4"/><variable idx="28"/></divide><divide><number value="12004.65"/><variable idx="29"/></divide><divide><number value="12674.25"/><variable idx="30"/></divide><divide><number value="13728"/><variable idx="31"/></divide><divide><number value="19854.45"/><variable idx="32"/></divide><divide><number value="20955"/><variable idx="33"/></divide><divide><number value="22991.4"/><variable idx="34"/></divide><divide><number value="24552"/><variable idx="35"/></divide><divide><number value="29647.5"/><variable idx="36"/></divide><divide><number value="30705.45"/><variable idx="37"/></divide><divide><number value="34773.3"/><variable idx="38"/></divide><divide><number value="37539"/><variable idx="39"/></divide><divide><number value="47513.4"/><variable idx="40"/></divide><divide><number value="85101.3"/><variable idx="41"/></divide><divide><number value="103560.6"/><variable idx="42"/></divide><divide><number value="112788"/><variable idx="43"/></divide><divide><number value="145599.75"/><variable idx="44"/></divide><divide><number value="149704.8"/><variable idx="45"/></divide><divide><number value="158976"/><variable idx="46"/></divide><divide><number value="159697.5"/><variable idx="47"/></divide></sum></nl></nonlinearExpressions></instanceData></osil>